NAME : kroE100-C-3-1-a__bsl_same_priority_ls__29183.tour
COMMENT : Length = 29183.000
COMMENT : Generated by compare_sota_instances.py for bsl_same_priority_ls
TYPE : TOUR
DIMENSION : 100
TOUR_SECTION
60
1
62
84
17
50
49
56
20
15
23
28
36
95
51
69
21
74
83
47
3
46
26
79
81
89
72
71
61
16
73
14
44
52
25
54
45
99
40
35
64
58
32
7
76
12
59
98
63
88
68
38
33
22
39
86
43
19
94
18
24
29
100
78
53
34
37
70
77
85
96
11
2
4
67
87
41
27
82
92
75
13
6
55
91
93
30
90
48
42
5
8
65
97
10
80
57
31
66
9
-1
EOF
